(set-option :produce-models true)
(set-option :produce-unsat-cores true)
(set-option :produce-interpolants true)
(set-option :interpolant-check-mode true)
(set-option :proof-transformation LU)
(set-logic ALL)
(set-info :source |SMT script generated on 2024-03-31T00:10:19+01:00 by Ultimate (https://ultimate.informatik.uni-freiburg.de/)|)
(set-info :smt-lib-version 2.5)
(set-info :category "industrial")
(set-info :ultimate-id nested_4.c_AllErrorsAtOnce_Iteration13)
(declare-fun |c_old(#valid)| () (Array Int Int))
(declare-fun |c_old(#valid)_primed| () (Array Int Int))
(declare-fun |c_#valid| () (Array Int Int))
(declare-fun |c_#valid_primed| () (Array Int Int))
(declare-fun |c_old(#length)| () (Array Int Int))
(declare-fun |c_old(#length)_primed| () (Array Int Int))
(declare-fun |c_#length| () (Array Int Int))
(declare-fun |c_#length_primed| () (Array Int Int))
(declare-fun |c_old(#memory_int#0)| () (Array Int (Array Int Int)))
(declare-fun |c_old(#memory_int#0)_primed| () (Array Int (Array Int Int)))
(declare-fun |c_#memory_int#0| () (Array Int (Array Int Int)))
(declare-fun |c_#memory_int#0_primed| () (Array Int (Array Int Int)))
(declare-fun |c_old(#StackHeapBarrier)| () Int)
(declare-fun |c_old(#StackHeapBarrier)_primed| () Int)
(declare-fun |c_#StackHeapBarrier| () Int)
(declare-fun |c_#StackHeapBarrier_primed| () Int)
(declare-fun |c_#Ultimate.allocInit_~size| () Int)
(declare-fun |c_#Ultimate.allocInit_~size_primed| () Int)
(declare-fun |c_#Ultimate.allocInit_ptrBase| () Int)
(declare-fun |c_#Ultimate.allocInit_ptrBase_primed| () Int)
(declare-fun |c_read~int#0_#ptr.base| () Int)
(declare-fun |c_read~int#0_#ptr.base_primed| () Int)
(declare-fun |c_read~int#0_#ptr.offset| () Int)
(declare-fun |c_read~int#0_#ptr.offset_primed| () Int)
(declare-fun |c_read~int#0_#sizeOfReadType| () Int)
(declare-fun |c_read~int#0_#sizeOfReadType_primed| () Int)
(declare-fun |c_read~int#0_#value| () Int)
(declare-fun |c_read~int#0_#value_primed| () Int)
(declare-fun |c_ULTIMATE.start_#t~ret8| () Int)
(declare-fun |c_ULTIMATE.start_#t~ret8_primed| () Int)
(declare-fun |c_main_#res| () Int)
(declare-fun |c_main_#res_primed| () Int)
(declare-fun |c_main_#t~pre4| () Int)
(declare-fun |c_main_#t~pre4_primed| () Int)
(declare-fun |c_main_#t~pre5| () Int)
(declare-fun |c_main_#t~pre5_primed| () Int)
(declare-fun |c_main_#t~pre6| () Int)
(declare-fun |c_main_#t~pre6_primed| () Int)
(declare-fun |c_main_#t~pre7| () Int)
(declare-fun |c_main_#t~pre7_primed| () Int)
(declare-fun c_main_~a~0 () Int)
(declare-fun c_main_~a~0_primed () Int)
(declare-fun c_main_~b~0 () Int)
(declare-fun c_main_~b~0_primed () Int)
(declare-fun c_main_~c~0 () Int)
(declare-fun c_main_~c~0_primed () Int)
(declare-fun c_main_~d~0 () Int)
(declare-fun c_main_~d~0_primed () Int)
(declare-fun |c_write~int#0_#value| () Int)
(declare-fun |c_write~int#0_#value_primed| () Int)
(declare-fun |c_write~int#0_#ptr.base| () Int)
(declare-fun |c_write~int#0_#ptr.base_primed| () Int)
(declare-fun |c_write~int#0_#ptr.offset| () Int)
(declare-fun |c_write~int#0_#ptr.offset_primed| () Int)
(declare-fun |c_write~int#0_#sizeOfWrittenType| () Int)
(declare-fun |c_write~int#0_#sizeOfWrittenType_primed| () Int)
(declare-fun |c___assert_fail_#in~0.base| () Int)
(declare-fun |c___assert_fail_#in~0.base_primed| () Int)
(declare-fun |c___assert_fail_#in~0.offset| () Int)
(declare-fun |c___assert_fail_#in~0.offset_primed| () Int)
(declare-fun |c___assert_fail_#in~1.base| () Int)
(declare-fun |c___assert_fail_#in~1.base_primed| () Int)
(declare-fun |c___assert_fail_#in~1.offset| () Int)
(declare-fun |c___assert_fail_#in~1.offset_primed| () Int)
(declare-fun |c___assert_fail_#in~2| () Int)
(declare-fun |c___assert_fail_#in~2_primed| () Int)
(declare-fun |c___assert_fail_#in~3.base| () Int)
(declare-fun |c___assert_fail_#in~3.base_primed| () Int)
(declare-fun |c___assert_fail_#in~3.offset| () Int)
(declare-fun |c___assert_fail_#in~3.offset_primed| () Int)
(declare-fun |c_write~init~int#0_#value| () Int)
(declare-fun |c_write~init~int#0_#value_primed| () Int)
(declare-fun |c_write~init~int#0_#ptr.base| () Int)
(declare-fun |c_write~init~int#0_#ptr.base_primed| () Int)
(declare-fun |c_write~init~int#0_#ptr.offset| () Int)
(declare-fun |c_write~init~int#0_#ptr.offset_primed| () Int)
(declare-fun |c_write~init~int#0_#sizeOfWrittenType| () Int)
(declare-fun |c_write~init~int#0_#sizeOfWrittenType_primed| () Int)
(declare-fun c_ULTIMATE.dealloc_~addr.base () Int)
(declare-fun c_ULTIMATE.dealloc_~addr.base_primed () Int)
(declare-fun c_ULTIMATE.dealloc_~addr.offset () Int)
(declare-fun c_ULTIMATE.dealloc_~addr.offset_primed () Int)
(declare-fun |c_aux_v_ULTIMATE.start_#t~ret8_3| () Int)
(echo "starting trace check")
(push 1)
(declare-fun |#memory_int#0_-1| () (Array Int (Array Int Int)))
(declare-fun |#StackHeapBarrier_-1| () Int)
(declare-fun |#length_-1| () (Array Int Int))
(declare-fun |#valid_-1| () (Array Int Int))
(declare-fun main_~c~0_4 () Int)
(declare-fun main_~d~0_4 () Int)
(declare-fun main_~b~0_4 () Int)
(declare-fun main_~a~0_4 () Int)
(declare-fun main_~b~0_5 () Int)
(declare-fun main_~c~0_6 () Int)
(declare-fun main_~d~0_7 () Int)
(declare-fun main_~d~0_8 () Int)
(declare-fun |main_#t~pre4_8| () Int)
(declare-fun main_~d~0_9 () Int)
(declare-fun |main_#t~pre4_9| () Int)
(declare-fun main_~d~0_10 () Int)
(declare-fun |main_#t~pre4_10| () Int)
(declare-fun main_~d~0_11 () Int)
(declare-fun |main_#t~pre4_11| () Int)
(declare-fun main_~d~0_12 () Int)
(declare-fun |main_#t~pre4_12| () Int)
(declare-fun main_~c~0_14 () Int)
(declare-fun |main_#t~pre5_14| () Int)
(declare-fun main_~d~0_15 () Int)
(declare-fun main_~d~0_16 () Int)
(declare-fun |main_#t~pre4_16| () Int)
(declare-fun main_~d~0_17 () Int)
(declare-fun |main_#t~pre4_17| () Int)
(declare-fun main_~d~0_18 () Int)
(declare-fun |main_#t~pre4_18| () Int)
(declare-fun main_~d~0_19 () Int)
(declare-fun |main_#t~pre4_19| () Int)
(declare-fun main_~d~0_20 () Int)
(declare-fun |main_#t~pre4_20| () Int)
(declare-fun main_~c~0_22 () Int)
(declare-fun |main_#t~pre5_22| () Int)
(declare-fun main_~b~0_24 () Int)
(declare-fun |main_#t~pre6_24| () Int)
(declare-fun main_~c~0_25 () Int)
(declare-fun main_~d~0_26 () Int)
(declare-fun main_~d~0_27 () Int)
(declare-fun |main_#t~pre4_27| () Int)
(declare-fun main_~d~0_28 () Int)
(declare-fun |main_#t~pre4_28| () Int)
(declare-fun main_~d~0_29 () Int)
(declare-fun |main_#t~pre4_29| () Int)
(declare-fun main_~d~0_30 () Int)
(declare-fun |main_#t~pre4_30| () Int)
(declare-fun main_~d~0_31 () Int)
(declare-fun |main_#t~pre4_31| () Int)
(declare-fun main_~c~0_33 () Int)
(declare-fun |main_#t~pre5_33| () Int)
(declare-fun main_~d~0_34 () Int)
(declare-fun main_~d~0_35 () Int)
(declare-fun |main_#t~pre4_35| () Int)
(declare-fun main_~d~0_36 () Int)
(declare-fun |main_#t~pre4_36| () Int)
(declare-fun main_~d~0_37 () Int)
(declare-fun |main_#t~pre4_37| () Int)
(declare-fun main_~d~0_38 () Int)
(declare-fun |main_#t~pre4_38| () Int)
(declare-fun main_~d~0_39 () Int)
(declare-fun |main_#t~pre4_39| () Int)
(declare-fun main_~c~0_41 () Int)
(declare-fun |main_#t~pre5_41| () Int)
(declare-fun main_~b~0_43 () Int)
(declare-fun |main_#t~pre6_43| () Int)
(declare-fun |main_#t~pre7_45| () Int)
(declare-fun main_~a~0_45 () Int)
(declare-fun main_~b~0_46 () Int)
(declare-fun main_~c~0_47 () Int)
(declare-fun main_~d~0_48 () Int)
(declare-fun main_~d~0_49 () Int)
(declare-fun |main_#t~pre4_49| () Int)
(declare-fun main_~d~0_50 () Int)
(declare-fun |main_#t~pre4_50| () Int)
(declare-fun main_~d~0_51 () Int)
(declare-fun |main_#t~pre4_51| () Int)
(declare-fun main_~d~0_52 () Int)
(declare-fun |main_#t~pre4_52| () Int)
(declare-fun main_~d~0_53 () Int)
(declare-fun |main_#t~pre4_53| () Int)
(declare-fun main_~c~0_55 () Int)
(declare-fun |main_#t~pre5_55| () Int)
(declare-fun main_~d~0_56 () Int)
(declare-fun main_~d~0_57 () Int)
(declare-fun |main_#t~pre4_57| () Int)
(declare-fun main_~d~0_58 () Int)
(declare-fun |main_#t~pre4_58| () Int)
(declare-fun main_~d~0_59 () Int)
(declare-fun |main_#t~pre4_59| () Int)
(declare-fun main_~d~0_60 () Int)
(declare-fun |main_#t~pre4_60| () Int)
(declare-fun main_~d~0_61 () Int)
(declare-fun |main_#t~pre4_61| () Int)
(declare-fun main_~c~0_63 () Int)
(declare-fun |main_#t~pre5_63| () Int)
(declare-fun main_~b~0_65 () Int)
(declare-fun |main_#t~pre6_65| () Int)
(declare-fun main_~c~0_66 () Int)
(declare-fun main_~d~0_67 () Int)
(declare-fun main_~d~0_68 () Int)
(declare-fun |main_#t~pre4_68| () Int)
(declare-fun main_~d~0_69 () Int)
(declare-fun |main_#t~pre4_69| () Int)
(declare-fun main_~d~0_70 () Int)
(declare-fun |main_#t~pre4_70| () Int)
(declare-fun main_~d~0_71 () Int)
(declare-fun |main_#t~pre4_71| () Int)
(declare-fun main_~d~0_72 () Int)
(declare-fun |main_#t~pre4_72| () Int)
(declare-fun main_~c~0_74 () Int)
(declare-fun |main_#t~pre5_74| () Int)
(declare-fun main_~d~0_75 () Int)
(declare-fun main_~d~0_76 () Int)
(declare-fun |main_#t~pre4_76| () Int)
(declare-fun main_~d~0_77 () Int)
(declare-fun |main_#t~pre4_77| () Int)
(declare-fun main_~d~0_78 () Int)
(declare-fun |main_#t~pre4_78| () Int)
(declare-fun main_~d~0_79 () Int)
(declare-fun |main_#t~pre4_79| () Int)
(declare-fun main_~d~0_80 () Int)
(declare-fun |main_#t~pre4_80| () Int)
(declare-fun main_~c~0_82 () Int)
(declare-fun |main_#t~pre5_82| () Int)
(declare-fun main_~b~0_84 () Int)
(declare-fun |main_#t~pre6_84| () Int)
(declare-fun |main_#t~pre7_86| () Int)
(declare-fun main_~a~0_86 () Int)
(declare-fun main_~c~0_88 () Int)
(declare-fun main_~d~0_88 () Int)
(declare-fun main_~b~0_88 () Int)
(declare-fun main_~a~0_88 () Int)
(assert (! true :named ssa_precond))
(assert (! (not false) :named ssa_postcond))
(assert (! true :named ssa_0_GlobVarAssigCall))
(assert (! true :named ssa_0_LocVarAssigCall))
(assert (! true :named ssa_0_OldVarAssigCall))
(assert (! (and (< 0 |#StackHeapBarrier_-1|) (= 12 (select |#length_-1| 3)) (= (select |#valid_-1| 3) 1) (= (select |#valid_-1| 2) 1) (= (select |#valid_-1| 1) 1) (= (select |#length_-1| 2) 11) (= (select (select |#memory_int#0_-1| 1) 1) 0) (= (select |#length_-1| 1) 2) (= (select (select |#memory_int#0_-1| 1) 0) 48) (= (select |#valid_-1| 0) 0)) :named ssa_1))
(assert (! true :named ssa_2_return))
(assert (! true :named ssa_3_GlobVarAssigCall))
(assert (! true :named ssa_3_LocVarAssigCall))
(assert (! true :named ssa_3_OldVarAssigCall))
(assert (! (and (= main_~a~0_4 0) (= main_~d~0_4 6) (= main_~c~0_4 6) (= main_~b~0_4 6)) :named ssa_4))
(assert (! (and (= main_~b~0_5 0) (< main_~a~0_4 6)) :named ssa_5))
(assert (! (and (< main_~b~0_5 6) (= main_~c~0_6 0)) :named ssa_6))
(assert (! (and (< main_~c~0_6 6) (= main_~d~0_7 0)) :named ssa_7))
(assert (! (and (< main_~d~0_7 6) (= (+ 1 main_~d~0_7) main_~d~0_8)) :named ssa_8))
(assert (! (and (< main_~d~0_8 6) (= (+ 1 main_~d~0_8) main_~d~0_9)) :named ssa_9))
(assert (! (and (< main_~d~0_9 6) (= (+ 1 main_~d~0_9) main_~d~0_10)) :named ssa_10))
(assert (! (and (< main_~d~0_10 6) (= (+ 1 main_~d~0_10) main_~d~0_11)) :named ssa_11))
(assert (! (and (< main_~d~0_11 6) (= (+ 1 main_~d~0_11) main_~d~0_12)) :named ssa_12))
(assert (! (<= 6 main_~d~0_12) :named ssa_13))
(assert (! (= main_~c~0_14 (+ main_~c~0_6 1)) :named ssa_14))
(assert (! (and (< main_~c~0_14 6) (= main_~d~0_15 0)) :named ssa_15))
(assert (! (and (< main_~d~0_15 6) (= (+ 1 main_~d~0_15) main_~d~0_16)) :named ssa_16))
(assert (! (and (< main_~d~0_16 6) (= (+ 1 main_~d~0_16) main_~d~0_17)) :named ssa_17))
(assert (! (and (< main_~d~0_17 6) (= (+ 1 main_~d~0_17) main_~d~0_18)) :named ssa_18))
(assert (! (and (< main_~d~0_18 6) (= (+ 1 main_~d~0_18) main_~d~0_19)) :named ssa_19))
(assert (! (and (< main_~d~0_19 6) (= (+ 1 main_~d~0_19) main_~d~0_20)) :named ssa_20))
(assert (! (<= 6 main_~d~0_20) :named ssa_21))
(assert (! (= main_~c~0_22 (+ main_~c~0_14 1)) :named ssa_22))
(assert (! (<= 6 main_~c~0_22) :named ssa_23))
(assert (! (= (+ main_~b~0_5 1) main_~b~0_24) :named ssa_24))
(assert (! (and (< main_~b~0_24 6) (= main_~c~0_25 0)) :named ssa_25))
(assert (! (and (< main_~c~0_25 6) (= main_~d~0_26 0)) :named ssa_26))
(assert (! (and (< main_~d~0_26 6) (= (+ 1 main_~d~0_26) main_~d~0_27)) :named ssa_27))
(assert (! (and (< main_~d~0_27 6) (= (+ 1 main_~d~0_27) main_~d~0_28)) :named ssa_28))
(assert (! (and (< main_~d~0_28 6) (= (+ 1 main_~d~0_28) main_~d~0_29)) :named ssa_29))
(assert (! (and (< main_~d~0_29 6) (= (+ 1 main_~d~0_29) main_~d~0_30)) :named ssa_30))
(assert (! (and (< main_~d~0_30 6) (= (+ 1 main_~d~0_30) main_~d~0_31)) :named ssa_31))
(assert (! (<= 6 main_~d~0_31) :named ssa_32))
(assert (! (= main_~c~0_33 (+ main_~c~0_25 1)) :named ssa_33))
(assert (! (and (< main_~c~0_33 6) (= main_~d~0_34 0)) :named ssa_34))
(assert (! (and (< main_~d~0_34 6) (= (+ 1 main_~d~0_34) main_~d~0_35)) :named ssa_35))
(assert (! (and (< main_~d~0_35 6) (= (+ 1 main_~d~0_35) main_~d~0_36)) :named ssa_36))
(assert (! (and (< main_~d~0_36 6) (= (+ 1 main_~d~0_36) main_~d~0_37)) :named ssa_37))
(assert (! (and (< main_~d~0_37 6) (= (+ 1 main_~d~0_37) main_~d~0_38)) :named ssa_38))
(assert (! (and (< main_~d~0_38 6) (= (+ 1 main_~d~0_38) main_~d~0_39)) :named ssa_39))
(assert (! (<= 6 main_~d~0_39) :named ssa_40))
(assert (! (= main_~c~0_41 (+ main_~c~0_33 1)) :named ssa_41))
(assert (! (<= 6 main_~c~0_41) :named ssa_42))
(assert (! (= (+ main_~b~0_24 1) main_~b~0_43) :named ssa_43))
(assert (! (<= 6 main_~b~0_43) :named ssa_44))
(assert (! (= main_~a~0_45 (+ main_~a~0_4 1)) :named ssa_45))
(assert (! (and (= main_~b~0_46 0) (< main_~a~0_45 6)) :named ssa_46))
(assert (! (and (< main_~b~0_46 6) (= main_~c~0_47 0)) :named ssa_47))
(assert (! (and (< main_~c~0_47 6) (= main_~d~0_48 0)) :named ssa_48))
(assert (! (and (< main_~d~0_48 6) (= (+ 1 main_~d~0_48) main_~d~0_49)) :named ssa_49))
(assert (! (and (< main_~d~0_49 6) (= (+ 1 main_~d~0_49) main_~d~0_50)) :named ssa_50))
(assert (! (and (< main_~d~0_50 6) (= (+ 1 main_~d~0_50) main_~d~0_51)) :named ssa_51))
(assert (! (and (< main_~d~0_51 6) (= (+ 1 main_~d~0_51) main_~d~0_52)) :named ssa_52))
(assert (! (and (< main_~d~0_52 6) (= (+ 1 main_~d~0_52) main_~d~0_53)) :named ssa_53))
(assert (! (<= 6 main_~d~0_53) :named ssa_54))
(assert (! (= main_~c~0_55 (+ main_~c~0_47 1)) :named ssa_55))
(assert (! (and (< main_~c~0_55 6) (= main_~d~0_56 0)) :named ssa_56))
(assert (! (and (< main_~d~0_56 6) (= (+ 1 main_~d~0_56) main_~d~0_57)) :named ssa_57))
(assert (! (and (< main_~d~0_57 6) (= (+ 1 main_~d~0_57) main_~d~0_58)) :named ssa_58))
(assert (! (and (< main_~d~0_58 6) (= (+ 1 main_~d~0_58) main_~d~0_59)) :named ssa_59))
(assert (! (and (< main_~d~0_59 6) (= (+ 1 main_~d~0_59) main_~d~0_60)) :named ssa_60))
(assert (! (and (< main_~d~0_60 6) (= (+ 1 main_~d~0_60) main_~d~0_61)) :named ssa_61))
(assert (! (<= 6 main_~d~0_61) :named ssa_62))
(assert (! (= main_~c~0_63 (+ main_~c~0_55 1)) :named ssa_63))
(assert (! (<= 6 main_~c~0_63) :named ssa_64))
(assert (! (= (+ main_~b~0_46 1) main_~b~0_65) :named ssa_65))
(assert (! (and (< main_~b~0_65 6) (= main_~c~0_66 0)) :named ssa_66))
(assert (! (and (< main_~c~0_66 6) (= main_~d~0_67 0)) :named ssa_67))
(assert (! (and (< main_~d~0_67 6) (= (+ 1 main_~d~0_67) main_~d~0_68)) :named ssa_68))
(assert (! (and (< main_~d~0_68 6) (= (+ 1 main_~d~0_68) main_~d~0_69)) :named ssa_69))
(assert (! (and (< main_~d~0_69 6) (= (+ 1 main_~d~0_69) main_~d~0_70)) :named ssa_70))
(assert (! (and (< main_~d~0_70 6) (= (+ 1 main_~d~0_70) main_~d~0_71)) :named ssa_71))
(assert (! (and (< main_~d~0_71 6) (= (+ 1 main_~d~0_71) main_~d~0_72)) :named ssa_72))
(assert (! (<= 6 main_~d~0_72) :named ssa_73))
(assert (! (= main_~c~0_74 (+ main_~c~0_66 1)) :named ssa_74))
(assert (! (and (< main_~c~0_74 6) (= main_~d~0_75 0)) :named ssa_75))
(assert (! (and (< main_~d~0_75 6) (= (+ 1 main_~d~0_75) main_~d~0_76)) :named ssa_76))
(assert (! (and (< main_~d~0_76 6) (= (+ 1 main_~d~0_76) main_~d~0_77)) :named ssa_77))
(assert (! (and (< main_~d~0_77 6) (= (+ 1 main_~d~0_77) main_~d~0_78)) :named ssa_78))
(assert (! (and (< main_~d~0_78 6) (= (+ 1 main_~d~0_78) main_~d~0_79)) :named ssa_79))
(assert (! (and (< main_~d~0_79 6) (= (+ 1 main_~d~0_79) main_~d~0_80)) :named ssa_80))
(assert (! (<= 6 main_~d~0_80) :named ssa_81))
(assert (! (= main_~c~0_82 (+ main_~c~0_74 1)) :named ssa_82))
(assert (! (<= 6 main_~c~0_82) :named ssa_83))
(assert (! (= (+ main_~b~0_65 1) main_~b~0_84) :named ssa_84))
(assert (! (<= 6 main_~b~0_84) :named ssa_85))
(assert (! (= main_~a~0_86 (+ main_~a~0_45 1)) :named ssa_86))
(assert (! (<= 6 main_~a~0_86) :named ssa_87))
(assert (! (or (not (= main_~c~0_82 6)) (not (= main_~d~0_80 6)) (not (= main_~b~0_84 6)) (not (= main_~a~0_86 6))) :named ssa_88))
(assert (! true :named ssa_89))
(check-sat)
(get-interpolants (and ssa_0_LocVarAssigCall ssa_precond ssa_0_GlobVarAssigCall ssa_0_OldVarAssigCall ssa_2_return ssa_1) (and ssa_3_OldVarAssigCall ssa_3_LocVarAssigCall ssa_3_GlobVarAssigCall) ssa_4 ssa_5 ssa_6 ssa_7 ssa_8 ssa_9 ssa_10 ssa_11 ssa_12 ssa_13 ssa_14 ssa_15 ssa_16 ssa_17 ssa_18 ssa_19 ssa_20 ssa_21 ssa_22 ssa_23 ssa_24 ssa_25 ssa_26 ssa_27 ssa_28 ssa_29 ssa_30 ssa_31 ssa_32 ssa_33 ssa_34 ssa_35 ssa_36 ssa_37 ssa_38 ssa_39 ssa_40 ssa_41 ssa_42 ssa_43 ssa_44 ssa_45 ssa_46 ssa_47 ssa_48 ssa_49 ssa_50 ssa_51 ssa_52 ssa_53 ssa_54 ssa_55 ssa_56 ssa_57 ssa_58 ssa_59 ssa_60 ssa_61 ssa_62 ssa_63 ssa_64 ssa_65 ssa_66 ssa_67 ssa_68 ssa_69 ssa_70 ssa_71 ssa_72 ssa_73 ssa_74 ssa_75 ssa_76 ssa_77 ssa_78 ssa_79 ssa_80 ssa_81 ssa_82 ssa_83 ssa_84 ssa_85 ssa_86 ssa_87 ssa_88 (and ssa_89 ssa_postcond))
(echo "finished trace check")
(pop 1)
(echo "starting trace check")
(push 1)
(declare-fun |#memory_int#0_-1| () (Array Int (Array Int Int)))
(declare-fun |#StackHeapBarrier_-1| () Int)
(declare-fun |#length_-1| () (Array Int Int))
(declare-fun |#valid_-1| () (Array Int Int))
(assert (! true :named ssa_precond))
(assert (! (not true) :named ssa_postcond))
(assert (! (and (< 0 |#StackHeapBarrier_-1|) (= 12 (select |#length_-1| 3)) (= (select |#valid_-1| 3) 1) (= (select |#valid_-1| 2) 1) (= (select |#valid_-1| 1) 1) (= (select |#length_-1| 2) 11) (= (select (select |#memory_int#0_-1| 1) 1) 0) (= (select |#length_-1| 1) 2) (= (select (select |#memory_int#0_-1| 1) 0) 48) (= (select |#valid_-1| 0) 0)) :named ssa_0))
(assert (! true :named ssa_1_return))
(assert (! true :named ssa_-2_PendingContext))
(assert (! true :named ssa_-2_LocVarAssignPendingContext))
(assert (! true :named ssa_-2_OldVarAssignPendingContext))
(check-sat)
(get-interpolants (and ssa_0 ssa_precond) (and ssa_-2_PendingContext ssa_-2_LocVarAssignPendingContext ssa_-2_OldVarAssignPendingContext ssa_1_return ssa_postcond))
(echo "finished trace check")
(pop 1)
(exit)
